(set-logic QF_S)
(set-option :strings-exp true)
(set-option :produce-models true)
(declare-fun sigmaStar_0 () String)
(declare-fun literal_6 () String)
(assert (= literal_6 "\x66\x6f\x72\x6d\x61\x74\x2f\x66\x6f\x72\x6d\x61\x74\x2f\x66\x6f\x72\x6d\x61\x74\x2e\x70\x68\x70"))
(assert (str.in.re literal_6 (re.++ (re.* re.allchar) (re.++ (str.to.re "\x2f\x65\x76\x69\x6c") (re.* re.allchar)))))
(check-sat)
(get-model)
